************************************************************************
file with basedata            : md364_.bas
initial value random generator: 522796667
************************************************************************
projects                      :  1
jobs (incl. supersource/sink ):  22
horizon                       :  164
RESOURCES
  - renewable                 :  2   R
  - nonrenewable              :  2   N
  - doubly constrained        :  0   D
************************************************************************
PROJECT INFORMATION:
pronr.  #jobs rel.date duedate tardcost  MPM-Time
    1     20      0       29        0       29
************************************************************************
PRECEDENCE RELATIONS:
jobnr.    #modes  #successors   successors
   1        1          3           2   3   4
   2        3          1          18
   3        3          3           5   7   8
   4        3          3           5   6  10
   5        3          3           9  15  20
   6        3          2          13  17
   7        3          3           9  10  17
   8        3          3          10  11  14
   9        3          2          13  16
  10        3          1          18
  11        3          3          12  17  19
  12        3          2          16  20
  13        3          1          18
  14        3          2          15  21
  15        3          1          19
  16        3          1          21
  17        3          1          20
  18        3          2          19  21
  19        3          1          22
  20        3          1          22
  21        3          1          22
  22        1          0        
************************************************************************
REQUESTS/DURATIONS:
jobnr. mode duration  R 1  R 2  N 1  N 2
------------------------------------------------------------------------
  1      1     0       0    0    0    0
  2      1     4       4    0    2    2
         2     7       1    0    2    2
         3     9       0    5    1    2
  3      1     2       0    3    7    5
         2     2       9    0    8    5
         3     4       9    0    5    5
  4      1     1       0    2    8    8
         2     1       4    0    7    8
         3     6       0    2    4    6
  5      1     1       6    0    7    7
         2    10       0    6    6    7
         3    10       3    0    6    6
  6      1     1       6    0    8    6
         2     3       6    0    7    5
         3     7       6    0    5    4
  7      1     3       0    2    4    2
         2     8       9    0    4    2
         3    10       6    0    4    2
  8      1     4       0   10    9    2
         2     6       0    7    7    2
         3     8       2    0    7    2
  9      1     5       0    6    7    6
         2     8       4    0    7    3
         3    10       0    5    7    3
 10      1     1       9    0    6    4
         2     4       0    4    5    3
         3     8       9    0    5    3
 11      1     4      10    0    3   10
         2     4       0    7    3   10
         3     6      10    0    3    8
 12      1     1       0    8    9    5
         2     4       0    6    9    5
         3     7       0    3    8    4
 13      1     5       5    0    9    5
         2     5       0    7   10    5
         3     9       0    6    8    4
 14      1     3       8    0    6    3
         2     5       7    0    4    3
         3     8       6    0    2    3
 15      1     5       0    5    7   10
         2     6       0    3    5    9
         3     8       0    3    2    8
 16      1     4       0    4   10    7
         2     5       2    0    9    7
         3     7       0    2    9    7
 17      1     1       0    9    5    6
         2     8       0    5    5    3
         3    10       4    0    4    3
 18      1     7       9    0    7    6
         2     7       0    5    7    7
         3    10       9    0    2    5
 19      1     3       4    0    3    5
         2     6       3    0    3    5
         3     8       1    0    1    4
 20      1     5       7    0    9    6
         2     6       0    4    6    5
         3    10       6    0    5    5
 21      1     7       8    0    4    5
         2     7       0    8    4    5
         3     9       0    3    3    4
 22      1     0       0    0    0    0
************************************************************************
RESOURCEAVAILABILITIES:
  R 1  R 2  N 1  N 2
   31   23  112  100
************************************************************************
MAXIMAL LAGS:
from  to  type  delay
    1   12   ES      0
    1    2   ES      0
    2   12   ES      0
    1    3   ES      0
    3   12   ES      0
    1    4   ES      0
    4   12   ES      0
    1    5   ES      0
    5   12   ES      0
    1    6   ES      0
    6   12   ES      0
    1    7   ES      0
    7   12   ES      0
    1    8   ES      0
    8   12   ES      0
    1    9   ES      0
    9   12   ES      0
    1   10   ES      0
   10   12   ES      0
    1   11   ES      0
   11   12   ES      0
    1   12   ES      0
    2   18   SS     -6
    2   18   SE     -7
    2   18   ES     11
    2   18   EE      7
    3    5   SS     -9
    3    5   SE     -5
    3    5   ES      1
    3    5   EE      7
    3    7   SS      0
    3    7   SE     -3
    3    7   ES     11
    3    7   EE      4
    3    8   SS    -11
    3    8   SE     10
    3    8   ES     -4
    3    8   EE     12
    4    5   SS    -12
    4    5   SE      3
    4    5   ES     -5
    4    5   EE      2
    4    6   SS     -6
    4    6   SE    -11
    4    6   ES     -4
    4    6   EE    -10
    4   10   SS     -1
    4   10   SE    -12
    4   10   ES     11
    4   10   EE      0
    5    9   SS     -6
    5    9   SE     -7
    5    9   ES     10
    5    9   EE     -4
    5   15   SS    -12
    5   15   SE     -2
    5   15   ES     -9
    5   15   EE    -11
    5   20   SS     11
    5   20   SE     -8
    5   20   ES      1
    5   20   EE     -1
    6   13   SS      4
    6   13   SE     -5
    6   13   ES      5
    6   13   EE      2
    6   17   SS      8
    6   17   SE      6
    6   17   ES      1
    6   17   EE     -6
    7    9   SS     -6
    7    9   SE     -3
    9    7   SE      0
    7    9   ES      0
    7    9   EE      2
    7   10   SS     -4
    7   10   SE      8
    7   10   ES      1
    7   10   EE     -4
    7   17   SS     10
    7   17   SE      0
    7   17   ES      1
    7   17   EE     11
    8   10   SS    -11
    8   10   SE     -5
    8   10   ES     -6
    8   10   EE     -8
    8   11   SS      3
    8   11   SE     -6
    8   11   ES      6
    8   11   EE      7
    8   14   SS      3
    8   14   SE     -4
    8   14   ES     -9
    8   14   EE     -2
    9   13   SS      7
    9   13   SE     -8
    9   13   ES    -11
    9   13   EE     10
    9   16   SS     12
    9   16   SE      6
    9   16   ES     -3
    9   16   EE    -10
   10   18   SS    -11
   10   18   SE    -10
   10   18   ES    -12
   10   18   EE     -7
   11   17   SS      8
   11   17   SE      3
   11   17   ES      1
   11   17   EE    -11
   11   19   SS      3
   11   19   SE      5
   11   19   ES     -9
   11   19   EE      9
   12   16   SS      7
   12   16   SE     -2
   12   16   ES     -9
   12   16   EE      0
   12   20   SS     -3
   12   20   SE      4
   12   20   ES     -4
   12   20   EE      6
   13   18   SS      2
   13   18   SE      3
   13   18   ES      6
   13   18   EE      8
   14   15   SS      3
   14   15   SE     -6
   14   15   ES      4
   14   15   EE     -6
   14   21   SS     -5
   14   21   SE    -12
   14   21   ES      1
   14   21   EE    -10
   15   19   SS     -4
   15   19   SE     -4
   15   19   ES     -6
   15   19   EE     -2
   16   21   SS      2
   16   21   SE      8
   16   21   ES     -1
   16   21   EE     -4
   17   20   SS     10
   17   20   SE      3
   17   20   ES      4
   17   20   EE      6
   18   19   SS     -6
   18   19   SE     -2
   18   19   ES    -12
   18   19   EE     -1
   18   21   SS      9
   18   21   SE     12
   18   21   ES     12
   18   21   EE      8
   19   22   SS      9
   19   22   SE     -7
   19   22   ES      1
   19   22   EE    -11
   20   22   SS     -7
   20   22   SE     12
   20   22   ES      2
   20   22   EE    -12
   21   22   SS     11
   21   22   SE      0
   21   22   ES      4
   21   22   EE      3
************************************************************************
